benchmark_str_length/p2_10_5-0.dzn
Alphabet = {A,C,G,T};
ns = 10;
nc = 4;
sl = 4;
neighbours = [| I(C),Null,Null,Null | I(G),I(C),Null,Null | I(G),I(A),I(C),I(T) | I(G),I(C),I(T),Null | I(A),I(A),I(T),I(C) | I(G),I(G),I(C),Null | I(A),I(C),I(T),Null | I(C),I(A),I(G),Null | I(A),I(C),I(G),I(G) | I(G),I(A),I(T),I(C) |];
